feasible solution found by trivial heuristic after 0.0 seconds, objective value 0.000000e+00
presolving:
(round 1, fast)       1977 del vars, 3851 del conss, 0 add conss, 125 chg bounds, 0 chg sides, 0 chg coeffs, 0 upgd conss, 0 impls, 179 clqs
(round 2, fast)       1977 del vars, 3851 del conss, 0 add conss, 125 chg bounds, 48 chg sides, 17525 chg coeffs, 0 upgd conss, 0 impls, 179 clqs
   (0.1s) running MILP presolver
   (0.1s) MILP presolver (3 rounds): 0 aggregations, 11 fixings, 62 bound changes
(round 3, medium)     1988 del vars, 3851 del conss, 0 add conss, 187 chg bounds, 48 chg sides, 17525 chg coeffs, 0 upgd conss, 0 impls, 179 clqs
(round 4, fast)       1988 del vars, 3851 del conss, 0 add conss, 187 chg bounds, 48 chg sides, 23239 chg coeffs, 0 upgd conss, 0 impls, 179 clqs
(round 5, exhaustive) 1988 del vars, 3857 del conss, 0 add conss, 187 chg bounds, 54 chg sides, 23239 chg coeffs, 0 upgd conss, 0 impls, 179 clqs
(round 6, exhaustive) 1988 del vars, 3857 del conss, 0 add conss, 187 chg bounds, 54 chg sides, 23239 chg coeffs, 182 upgd conss, 0 impls, 179 clqs
(round 7, exhaustive) 1988 del vars, 3857 del conss, 0 add conss, 187 chg bounds, 54 chg sides, 23240 chg coeffs, 182 upgd conss, 0 impls, 179 clqs
   (1.0s) probing cycle finished: starting next cycle
   (1.2s) symmetry computation started: requiring (bin +, int -, cont +), (fixed: bin -, int +, cont -)
   (1.2s) no symmetry present
presolving (8 rounds: 8 fast, 5 medium, 4 exhaustive):
 1988 deleted vars, 3857 deleted constraints, 0 added constraints, 187 tightened bounds, 0 added holes, 54 changed sides, 23240 changed coefficients
 42173 implications, 179 cliques
presolved problem has 426 variables (364 bin, 0 int, 0 impl, 62 cont) and 283 constraints
    175 constraints of type <setppc>
    101 constraints of type <linear>
      7 constraints of type <logicor>
Presolving Time: 1.16
transformed 1/1 original solutions to the transformed problem space

 time | node  | left  |LP iter|LP it/n|mem/heur|mdpt |vars |cons |rows |cuts |sepa|confs|strbr|  dualbound   | primalbound  |  gap   | compl. 
p 1.2s|     1 |     0 |     0 |     - |  clique|   0 | 426 | 283 | 283 |   0 |  0 |   0 |   0 | 6.565311e+04 | 4.809735e+03 |1265.00%| unknown
  1.6s|     1 |     0 |  4226 |     - |   117M |   0 | 426 | 283 | 283 |   0 |  0 |   0 |   0 | 5.973022e+03 | 4.809735e+03 |  24.19%| unknown
  1.8s|     1 |     0 |  4291 |     - |   119M |   0 | 426 | 283 | 284 |   1 |  1 |   0 |   0 | 5.965369e+03 | 4.809735e+03 |  24.03%| unknown
  2.0s|     1 |     0 |  4395 |     - |   120M |   0 | 426 | 283 | 288 |   5 |  2 |   0 |   0 | 5.952414e+03 | 4.809735e+03 |  23.76%| unknown
  2.2s|     1 |     0 |  4460 |     - |   122M |   0 | 426 | 283 | 290 |   7 |  3 |   0 |   0 | 5.947023e+03 | 4.809735e+03 |  23.65%| unknown
  2.4s|     1 |     0 |  4565 |     - |   125M |   0 | 426 | 283 | 292 |   9 |  4 |   0 |   0 | 5.944437e+03 | 4.809735e+03 |  23.59%| unknown
  2.6s|     1 |     0 |  4634 |     - |   128M |   0 | 426 | 283 | 295 |  12 |  5 |   0 |   0 | 5.941732e+03 | 4.809735e+03 |  23.54%| unknown
  2.9s|     1 |     0 |  4697 |     - |   129M |   0 | 426 | 283 | 300 |  17 |  6 |   0 |   0 | 5.938589e+03 | 4.809735e+03 |  23.47%| unknown
  3.1s|     1 |     0 |  4751 |     - |   129M |   0 | 426 | 283 | 302 |  19 |  7 |   0 |   0 | 5.936252e+03 | 4.809735e+03 |  23.42%| unknown
  3.3s|     1 |     0 |  4810 |     - |   131M |   0 | 426 | 283 | 308 |  25 |  8 |   0 |   0 | 5.934009e+03 | 4.809735e+03 |  23.37%| unknown
  3.6s|     1 |     0 |  4882 |     - |   132M |   0 | 426 | 283 | 315 |  32 |  9 |   0 |   0 | 5.930995e+03 | 4.809735e+03 |  23.31%| unknown
  3.8s|     1 |     0 |  4983 |     - |   135M |   0 | 426 | 283 | 317 |  34 | 10 |   0 |   0 | 5.927121e+03 | 4.809735e+03 |  23.23%| unknown
  4.0s|     1 |     0 |  5091 |     - |   135M |   0 | 426 | 283 | 320 |  37 | 11 |   0 |   0 | 5.923940e+03 | 4.809735e+03 |  23.17%| unknown
  4.2s|     1 |     0 |  5156 |     - |   135M |   0 | 426 | 283 | 324 |  41 | 12 |   0 |   0 | 5.921201e+03 | 4.809735e+03 |  23.11%| unknown
  4.5s|     1 |     0 |  5196 |     - |   135M |   0 | 426 | 283 | 329 |  46 | 13 |   0 |   0 | 5.919387e+03 | 4.809735e+03 |  23.07%| unknown
 time | node  | left  |LP iter|LP it/n|mem/heur|mdpt |vars |cons |rows |cuts |sepa|confs|strbr|  dualbound   | primalbound  |  gap   | compl. 
  4.7s|     1 |     0 |  5221 |     - |   135M |   0 | 426 | 283 | 332 |  49 | 14 |   0 |   0 | 5.918626e+03 | 4.809735e+03 |  23.06%| unknown
  4.9s|     1 |     0 |  5259 |     - |   135M |   0 | 426 | 283 | 335 |  52 | 15 |   0 |   0 | 5.917771e+03 | 4.809735e+03 |  23.04%| unknown
  5.1s|     1 |     0 |  5291 |     - |   135M |   0 | 426 | 283 | 337 |  54 | 16 |   0 |   0 | 5.916437e+03 | 4.809735e+03 |  23.01%| unknown
  5.3s|     1 |     0 |  5327 |     - |   135M |   0 | 426 | 283 | 342 |  59 | 17 |   0 |   0 | 5.915515e+03 | 4.809735e+03 |  22.99%| unknown
  5.6s|     1 |     0 |  5347 |     - |   135M |   0 | 426 | 283 | 343 |  60 | 18 |   0 |   0 | 5.915333e+03 | 4.809735e+03 |  22.99%| unknown
  5.8s|     1 |     0 |  5369 |     - |   135M |   0 | 426 | 283 | 345 |  62 | 19 |   0 |   0 | 5.915177e+03 | 4.809735e+03 |  22.98%| unknown
  6.0s|     1 |     0 |  5420 |     - |   135M |   0 | 426 | 283 | 349 |  66 | 20 |   0 |   0 | 5.913615e+03 | 4.809735e+03 |  22.95%| unknown
  6.2s|     1 |     0 |  5479 |     - |   135M |   0 | 426 | 283 | 354 |  71 | 21 |   0 |   0 | 5.911476e+03 | 4.809735e+03 |  22.91%| unknown
  6.4s|     1 |     0 |  5531 |     - |   135M |   0 | 426 | 283 | 350 |  77 | 22 |   0 |   0 | 5.910014e+03 | 4.809735e+03 |  22.88%| unknown
  6.7s|     1 |     0 |  5551 |     - |   135M |   0 | 426 | 283 | 354 |  81 | 23 |   0 |   0 | 5.909448e+03 | 4.809735e+03 |  22.86%| unknown
  6.9s|     1 |     0 |  5578 |     - |   135M |   0 | 426 | 283 | 357 |  84 | 24 |   0 |   0 | 5.908971e+03 | 4.809735e+03 |  22.85%| unknown
  7.1s|     1 |     0 |  5608 |     - |   135M |   0 | 426 | 283 | 359 |  86 | 25 |   0 |   0 | 5.908301e+03 | 4.809735e+03 |  22.84%| unknown
  7.3s|     1 |     0 |  5627 |     - |   135M |   0 | 426 | 283 | 362 |  89 | 26 |   0 |   0 | 5.907804e+03 | 4.809735e+03 |  22.83%| unknown
  7.5s|     1 |     0 |  5722 |     - |   135M |   0 | 426 | 283 | 367 |  94 | 27 |   0 |   0 | 5.905748e+03 | 4.809735e+03 |  22.79%| unknown
  7.8s|     1 |     0 |  5756 |     - |   135M |   0 | 426 | 283 | 365 |  99 | 28 |   0 |   0 | 5.905111e+03 | 4.809735e+03 |  22.77%| unknown
 time | node  | left  |LP iter|LP it/n|mem/heur|mdpt |vars |cons |rows |cuts |sepa|confs|strbr|  dualbound   | primalbound  |  gap   | compl. 
  8.0s|     1 |     0 |  5786 |     - |   136M |   0 | 426 | 283 | 368 | 102 | 29 |   0 |   0 | 5.904683e+03 | 4.809735e+03 |  22.77%| unknown
  8.2s|     1 |     0 |  5805 |     - |   136M |   0 | 426 | 283 | 371 | 105 | 30 |   0 |   0 | 5.904543e+03 | 4.809735e+03 |  22.76%| unknown
  8.4s|     1 |     0 |  5831 |     - |   136M |   0 | 426 | 283 | 373 | 107 | 31 |   0 |   0 | 5.904159e+03 | 4.809735e+03 |  22.75%| unknown
  8.6s|     1 |     0 |  5838 |     - |   136M |   0 | 426 | 283 | 374 | 108 | 32 |   0 |   0 | 5.904151e+03 | 4.809735e+03 |  22.75%| unknown
  8.9s|     1 |     0 |  5865 |     - |   136M |   0 | 426 | 283 | 379 | 113 | 33 |   0 |   0 | 5.903486e+03 | 4.809735e+03 |  22.74%| unknown
  9.1s|     1 |     0 |  5891 |     - |   136M |   0 | 426 | 283 | 370 | 114 | 34 |   0 |   0 | 5.903178e+03 | 4.809735e+03 |  22.73%| unknown
  9.3s|     1 |     0 |  5898 |     - |   136M |   0 | 426 | 283 | 373 | 117 | 35 |   0 |   0 | 5.903127e+03 | 4.809735e+03 |  22.73%| unknown
  9.5s|     1 |     0 |  5908 |     - |   136M |   0 | 426 | 283 | 374 | 118 | 36 |   0 |   0 | 5.903107e+03 | 4.809735e+03 |  22.73%| unknown
d 9.8s|     1 |     0 |  6721 |     - |farkasdi|   0 | 426 | 283 | 374 |   0 | 38 |   0 |   0 | 5.903107e+03 | 5.391566e+03 |   9.49%| unknown
  9.8s|     1 |     0 |  6722 |     - |   136M |   0 | 426 | 283 | 374 | 118 | 38 |   0 |   0 | 5.903107e+03 | 5.391566e+03 |   9.49%| unknown
 10.0s|     1 |     0 |  6727 |     - |   136M |   0 | 426 | 283 | 377 | 121 | 39 |   0 |   0 | 5.903105e+03 | 5.391566e+03 |   9.49%| unknown
 10.0s|     1 |     0 |  6731 |     - |   136M |   0 | 426 | 283 | 380 | 124 | 40 |   0 |   0 | 5.903099e+03 | 5.391566e+03 |   9.49%| unknown
 11.3s|     1 |     2 |  6731 |     - |   136M |   0 | 426 | 283 | 380 | 124 | 40 |   0 |  47 | 5.885921e+03 | 5.391566e+03 |   9.17%| unknown
*12.3s|     5 |     4 |  7551 | 436.8 |strongbr|   4 | 426 | 283 | 341 | 124 |  1 |   0 | 125 | 5.885921e+03 | 5.586890e+03 |   5.35%| unknown
*12.3s|     5 |     4 |  7556 | 438.0 |strongbr|   4 | 426 | 287 | 341 | 124 |  3 |   4 | 130 | 5.885921e+03 | 5.593159e+03 |   5.23%| unknown
 time | node  | left  |LP iter|LP it/n|mem/heur|mdpt |vars |cons |rows |cuts |sepa|confs|strbr|  dualbound   | primalbound  |  gap   | compl. 
*12.5s|     6 |     3 |  7685 | 376.2 |strongbr|   4 | 426 | 300 | 341 | 124 | 13 |  17 | 163 | 5.885921e+03 | 5.617194e+03 |   4.78%|   2.72%
*12.5s|     6 |     3 |  7685 | 376.2 |strongbr|   4 | 426 | 300 | 341 | 124 | 13 |  17 | 164 | 5.885921e+03 | 5.618095e+03 |   4.77%|   2.72%
*17.6s|    23 |     6 | 10934 | 233.2 |strongbr|   8 | 426 | 346 | 341 | 124 |  2 |  63 | 602 | 5.876459e+03 | 5.634024e+03 |   4.30%|  15.57%
*19.5s|    49 |     8 | 12904 | 147.9 |    LP  |  10 | 426 | 392 | 341 | 124 |  2 | 109 | 781 | 5.876459e+03 | 5.641528e+03 |   4.16%|  28.01%
*20.9s|    81 |    10 | 15328 | 119.0 |    LP  |  13 | 426 | 409 | 351 | 137 |  2 | 126 | 857 | 5.874919e+03 | 5.647440e+03 |   4.03%|  33.66%
 21.6s|   100 |    11 | 16777 | 110.8 |   144M |  14 | 426 | 419 | 349 | 164 |  1 | 136 | 869 | 5.874919e+03 | 5.647440e+03 |   4.03%|  38.40%
*22.1s|   122 |    11 | 17945 | 100.3 |    LP  |  14 | 426 | 421 | 346 | 169 |  1 | 138 | 891 | 5.874919e+03 | 5.680482e+03 |   3.42%|  40.04%
*22.5s|   133 |    12 | 18926 |  99.4 |    LP  |  14 | 426 | 428 | 352 | 180 |  2 | 145 | 905 | 5.874919e+03 | 5.692549e+03 |   3.20%|  42.54%
*23.0s|   166 |    10 | 20290 |  87.8 |    LP  |  17 | 426 | 438 | 341 | 180 |  2 | 155 | 939 | 5.873838e+03 | 5.708857e+03 |   2.89%|  51.03%
*23.2s|   178 |    10 | 21039 |  86.1 |    LP  |  17 | 426 | 442 | 341 | 180 |  2 | 159 | 953 | 5.873838e+03 | 5.711509e+03 |   2.84%|  54.99%
 23.9s|   200 |    12 | 22870 |  85.8 |   144M |  17 | 426 | 453 | 341 | 187 |  3 | 170 | 989 | 5.871760e+03 | 5.711509e+03 |   2.81%|  60.28%
*24.4s|   225 |     7 | 24287 |  82.5 |    LP  |  17 | 426 | 462 | 349 | 196 |  2 | 179 |1006 | 5.871760e+03 | 5.722873e+03 |   2.60%|  70.83%
*25.5s|   271 |     7 | 27160 |  79.1 |    LP  |  17 | 426 | 469 | 350 | 223 |  2 | 186 |1032 | 5.866092e+03 | 5.731411e+03 |   2.35%|  77.80%
 26.3s|   300 |     6 | 28954 |  77.4 |   150M |  17 | 426 | 473 | 348 | 240 |  0 | 190 |1048 | 5.861815e+03 | 5.731411e+03 |   2.28%|  81.99%
 27.8s|   400 |     4 | 35640 |  74.8 |   151M |  23 | 426 | 489 | 352 | 257 |  3 | 206 |1100 | 5.810313e+03 | 5.731411e+03 |   1.38%|  90.54%

SCIP Status        : problem is solved [optimal solution found]
Solving Time (sec) : 28.21
Solving Nodes      : 454
Primal Bound       : +5.73141137977266e+03 (210 solutions)
Dual Bound         : +5.73141137977266e+03
Gap                : 0.00 %
Solve Status: optimal
Solve Time: 28.21 seconds
